50
    1    95    18
    2    67    19
    3    77     5
    4    21    26
    5    22    15
    6    74    64
    7    22    28
    8    92    18
    9     7    60
   10    63    21
   11    64    10
   12    64    58
   13    20     3
   14    11    71
   15     4    67
   16    97    91
   17    27    72
   18    11     7
   19    59    24
   20    54    49
   21    46    64
   22    72    78
   23    37    47
   24    81    57
   25    46    19
   26     7     7
   27    33     1
   28    76    26
   29    11    60
   30    53    46
   31    98    80
   32    21    42
   33    89    46
   34    56     8
   35    44     3
   36    82    76
   37    50    55
   38    96    47
   39    55    79
   40    76    97
   41    69     2
   42    50    20
   43    14    65
   44    92    12
   45    95    82
   46    36    53
   47     5    40
   48    45    72
   49    45    50
   50    90    23
1041
